c File: flat200_3_0.col
c
c SOURCE: Joseph Culberson (joe@cs.ualberta.ca)
c DESCRIPTION: Quasi-random coloring problem
c              generated with flatness = 0
c                             probability = 0.036
c                             known coloring = 3
c                             random seed = 1038
c              Creation Date:  Wed Feb 24 10:39:49 1999
c Maximum degree = 8 Minimum degree = 0
c COLOR VERIFICATION: Using the permuted order
c under simple greedy yields the specified
c coloring number
c Color = 3 specified partitions = 3
c p edge 200 479
c cnf created by edge2cnf
p cnf 600 2237
-1 -2 0
-1 -3 0
-2 -3 0
1 2 3 0
-4 -5 0
-4 -6 0
-5 -6 0
4 5 6 0
-7 -8 0
-7 -9 0
-8 -9 0
7 8 9 0
-10 -11 0
-10 -12 0
-11 -12 0
10 11 12 0
-13 -14 0
-13 -15 0
-14 -15 0
13 14 15 0
-16 -17 0
-16 -18 0
-17 -18 0
16 17 18 0
-19 -20 0
-19 -21 0
-20 -21 0
19 20 21 0
-22 -23 0
-22 -24 0
-23 -24 0
22 23 24 0
-25 -26 0
-25 -27 0
-26 -27 0
25 26 27 0
-28 -29 0
-28 -30 0
-29 -30 0
28 29 30 0
-31 -32 0
-31 -33 0
-32 -33 0
31 32 33 0
-34 -35 0
-34 -36 0
-35 -36 0
34 35 36 0
-37 -38 0
-37 -39 0
-38 -39 0
37 38 39 0
-40 -41 0
-40 -42 0
-41 -42 0
40 41 42 0
-43 -44 0
-43 -45 0
-44 -45 0
43 44 45 0
-46 -47 0
-46 -48 0
-47 -48 0
46 47 48 0
-49 -50 0
-49 -51 0
-50 -51 0
49 50 51 0
-52 -53 0
-52 -54 0
-53 -54 0
52 53 54 0
-55 -56 0
-55 -57 0
-56 -57 0
55 56 57 0
-58 -59 0
-58 -60 0
-59 -60 0
58 59 60 0
-61 -62 0
-61 -63 0
-62 -63 0
61 62 63 0
-64 -65 0
-64 -66 0
-65 -66 0
64 65 66 0
-67 -68 0
-67 -69 0
-68 -69 0
67 68 69 0
-70 -71 0
-70 -72 0
-71 -72 0
70 71 72 0
-73 -74 0
-73 -75 0
-74 -75 0
73 74 75 0
-76 -77 0
-76 -78 0
-77 -78 0
76 77 78 0
-79 -80 0
-79 -81 0
-80 -81 0
79 80 81 0
-82 -83 0
-82 -84 0
-83 -84 0
82 83 84 0
-85 -86 0
-85 -87 0
-86 -87 0
85 86 87 0
-88 -89 0
-88 -90 0
-89 -90 0
88 89 90 0
-91 -92 0
-91 -93 0
-92 -93 0
91 92 93 0
-94 -95 0
-94 -96 0
-95 -96 0
94 95 96 0
-97 -98 0
-97 -99 0
-98 -99 0
97 98 99 0
-100 -101 0
-100 -102 0
-101 -102 0
100 101 102 0
-103 -104 0
-103 -105 0
-104 -105 0
103 104 105 0
-106 -107 0
-106 -108 0
-107 -108 0
106 107 108 0
-109 -110 0
-109 -111 0
-110 -111 0
109 110 111 0
-112 -113 0
-112 -114 0
-113 -114 0
112 113 114 0
-115 -116 0
-115 -117 0
-116 -117 0
115 116 117 0
-118 -119 0
-118 -120 0
-119 -120 0
118 119 120 0
-121 -122 0
-121 -123 0
-122 -123 0
121 122 123 0
-124 -125 0
-124 -126 0
-125 -126 0
124 125 126 0
-127 -128 0
-127 -129 0
-128 -129 0
127 128 129 0
-130 -131 0
-130 -132 0
-131 -132 0
130 131 132 0
-133 -134 0
-133 -135 0
-134 -135 0
133 134 135 0
-136 -137 0
-136 -138 0
-137 -138 0
136 137 138 0
-139 -140 0
-139 -141 0
-140 -141 0
139 140 141 0
-142 -143 0
-142 -144 0
-143 -144 0
142 143 144 0
-145 -146 0
-145 -147 0
-146 -147 0
145 146 147 0
-148 -149 0
-148 -150 0
-149 -150 0
148 149 150 0
-151 -152 0
-151 -153 0
-152 -153 0
151 152 153 0
-154 -155 0
-154 -156 0
-155 -156 0
154 155 156 0
-157 -158 0
-157 -159 0
-158 -159 0
157 158 159 0
-160 -161 0
-160 -162 0
-161 -162 0
160 161 162 0
-163 -164 0
-163 -165 0
-164 -165 0
163 164 165 0
-166 -167 0
-166 -168 0
-167 -168 0
166 167 168 0
-169 -170 0
-169 -171 0
-170 -171 0
169 170 171 0
-172 -173 0
-172 -174 0
-173 -174 0
172 173 174 0
-175 -176 0
-175 -177 0
-176 -177 0
175 176 177 0
-178 -179 0
-178 -180 0
-179 -180 0
178 179 180 0
-181 -182 0
-181 -183 0
-182 -183 0
181 182 183 0
-184 -185 0
-184 -186 0
-185 -186 0
184 185 186 0
-187 -188 0
-187 -189 0
-188 -189 0
187 188 189 0
-190 -191 0
-190 -192 0
-191 -192 0
190 191 192 0
-193 -194 0
-193 -195 0
-194 -195 0
193 194 195 0
-196 -197 0
-196 -198 0
-197 -198 0
196 197 198 0
-199 -200 0
-199 -201 0
-200 -201 0
199 200 201 0
-202 -203 0
-202 -204 0
-203 -204 0
202 203 204 0
-205 -206 0
-205 -207 0
-206 -207 0
205 206 207 0
-208 -209 0
-208 -210 0
-209 -210 0
208 209 210 0
-211 -212 0
-211 -213 0
-212 -213 0
211 212 213 0
-214 -215 0
-214 -216 0
-215 -216 0
214 215 216 0
-217 -218 0
-217 -219 0
-218 -219 0
217 218 219 0
-220 -221 0
-220 -222 0
-221 -222 0
220 221 222 0
-223 -224 0
-223 -225 0
-224 -225 0
223 224 225 0
-226 -227 0
-226 -228 0
-227 -228 0
226 227 228 0
-229 -230 0
-229 -231 0
-230 -231 0
229 230 231 0
-232 -233 0
-232 -234 0
-233 -234 0
232 233 234 0
-235 -236 0
-235 -237 0
-236 -237 0
235 236 237 0
-238 -239 0
-238 -240 0
-239 -240 0
238 239 240 0
-241 -242 0
-241 -243 0
-242 -243 0
241 242 243 0
-244 -245 0
-244 -246 0
-245 -246 0
244 245 246 0
-247 -248 0
-247 -249 0
-248 -249 0
247 248 249 0
-250 -251 0
-250 -252 0
-251 -252 0
250 251 252 0
-253 -254 0
-253 -255 0
-254 -255 0
253 254 255 0
-256 -257 0
-256 -258 0
-257 -258 0
256 257 258 0
-259 -260 0
-259 -261 0
-260 -261 0
259 260 261 0
-262 -263 0
-262 -264 0
-263 -264 0
262 263 264 0
-265 -266 0
-265 -267 0
-266 -267 0
265 266 267 0
-268 -269 0
-268 -270 0
-269 -270 0
268 269 270 0
-271 -272 0
-271 -273 0
-272 -273 0
271 272 273 0
-274 -275 0
-274 -276 0
-275 -276 0
274 275 276 0
-277 -278 0
-277 -279 0
-278 -279 0
277 278 279 0
-280 -281 0
-280 -282 0
-281 -282 0
280 281 282 0
-283 -284 0
-283 -285 0
-284 -285 0
283 284 285 0
-286 -287 0
-286 -288 0
-287 -288 0
286 287 288 0
-289 -290 0
-289 -291 0
-290 -291 0
289 290 291 0
-292 -293 0
-292 -294 0
-293 -294 0
292 293 294 0
-295 -296 0
-295 -297 0
-296 -297 0
295 296 297 0
-298 -299 0
-298 -300 0
-299 -300 0
298 299 300 0
-301 -302 0
-301 -303 0
-302 -303 0
301 302 303 0
-304 -305 0
-304 -306 0
-305 -306 0
304 305 306 0
-307 -308 0
-307 -309 0
-308 -309 0
307 308 309 0
-310 -311 0
-310 -312 0
-311 -312 0
310 311 312 0
-313 -314 0
-313 -315 0
-314 -315 0
313 314 315 0
-316 -317 0
-316 -318 0
-317 -318 0
316 317 318 0
-319 -320 0
-319 -321 0
-320 -321 0
319 320 321 0
-322 -323 0
-322 -324 0
-323 -324 0
322 323 324 0
-325 -326 0
-325 -327 0
-326 -327 0
325 326 327 0
-328 -329 0
-328 -330 0
-329 -330 0
328 329 330 0
-331 -332 0
-331 -333 0
-332 -333 0
331 332 333 0
-334 -335 0
-334 -336 0
-335 -336 0
334 335 336 0
-337 -338 0
-337 -339 0
-338 -339 0
337 338 339 0
-340 -341 0
-340 -342 0
-341 -342 0
340 341 342 0
-343 -344 0
-343 -345 0
-344 -345 0
343 344 345 0
-346 -347 0
-346 -348 0
-347 -348 0
346 347 348 0
-349 -350 0
-349 -351 0
-350 -351 0
349 350 351 0
-352 -353 0
-352 -354 0
-353 -354 0
352 353 354 0
-355 -356 0
-355 -357 0
-356 -357 0
355 356 357 0
-358 -359 0
-358 -360 0
-359 -360 0
358 359 360 0
-361 -362 0
-361 -363 0
-362 -363 0
361 362 363 0
-364 -365 0
-364 -366 0
-365 -366 0
364 365 366 0
-367 -368 0
-367 -369 0
-368 -369 0
367 368 369 0
-370 -371 0
-370 -372 0
-371 -372 0
370 371 372 0
-373 -374 0
-373 -375 0
-374 -375 0
373 374 375 0
-376 -377 0
-376 -378 0
-377 -378 0
376 377 378 0
-379 -380 0
-379 -381 0
-380 -381 0
379 380 381 0
-382 -383 0
-382 -384 0
-383 -384 0
382 383 384 0
-385 -386 0
-385 -387 0
-386 -387 0
385 386 387 0
-388 -389 0
-388 -390 0
-389 -390 0
388 389 390 0
-391 -392 0
-391 -393 0
-392 -393 0
391 392 393 0
-394 -395 0
-394 -396 0
-395 -396 0
394 395 396 0
-397 -398 0
-397 -399 0
-398 -399 0
397 398 399 0
-400 -401 0
-400 -402 0
-401 -402 0
400 401 402 0
-403 -404 0
-403 -405 0
-404 -405 0
403 404 405 0
-406 -407 0
-406 -408 0
-407 -408 0
406 407 408 0
-409 -410 0
-409 -411 0
-410 -411 0
409 410 411 0
-412 -413 0
-412 -414 0
-413 -414 0
412 413 414 0
-415 -416 0
-415 -417 0
-416 -417 0
415 416 417 0
-418 -419 0
-418 -420 0
-419 -420 0
418 419 420 0
-421 -422 0
-421 -423 0
-422 -423 0
421 422 423 0
-424 -425 0
-424 -426 0
-425 -426 0
424 425 426 0
-427 -428 0
-427 -429 0
-428 -429 0
427 428 429 0
-430 -431 0
-430 -432 0
-431 -432 0
430 431 432 0
-433 -434 0
-433 -435 0
-434 -435 0
433 434 435 0
-436 -437 0
-436 -438 0
-437 -438 0
436 437 438 0
-439 -440 0
-439 -441 0
-440 -441 0
439 440 441 0
-442 -443 0
-442 -444 0
-443 -444 0
442 443 444 0
-445 -446 0
-445 -447 0
-446 -447 0
445 446 447 0
-448 -449 0
-448 -450 0
-449 -450 0
448 449 450 0
-451 -452 0
-451 -453 0
-452 -453 0
451 452 453 0
-454 -455 0
-454 -456 0
-455 -456 0
454 455 456 0
-457 -458 0
-457 -459 0
-458 -459 0
457 458 459 0
-460 -461 0
-460 -462 0
-461 -462 0
460 461 462 0
-463 -464 0
-463 -465 0
-464 -465 0
463 464 465 0
-466 -467 0
-466 -468 0
-467 -468 0
466 467 468 0
-469 -470 0
-469 -471 0
-470 -471 0
469 470 471 0
-472 -473 0
-472 -474 0
-473 -474 0
472 473 474 0
-475 -476 0
-475 -477 0
-476 -477 0
475 476 477 0
-478 -479 0
-478 -480 0
-479 -480 0
478 479 480 0
-481 -482 0
-481 -483 0
-482 -483 0
481 482 483 0
-484 -485 0
-484 -486 0
-485 -486 0
484 485 486 0
-487 -488 0
-487 -489 0
-488 -489 0
487 488 489 0
-490 -491 0
-490 -492 0
-491 -492 0
490 491 492 0
-493 -494 0
-493 -495 0
-494 -495 0
493 494 495 0
-496 -497 0
-496 -498 0
-497 -498 0
496 497 498 0
-499 -500 0
-499 -501 0
-500 -501 0
499 500 501 0
-502 -503 0
-502 -504 0
-503 -504 0
502 503 504 0
-505 -506 0
-505 -507 0
-506 -507 0
505 506 507 0
-508 -509 0
-508 -510 0
-509 -510 0
508 509 510 0
-511 -512 0
-511 -513 0
-512 -513 0
511 512 513 0
-514 -515 0
-514 -516 0
-515 -516 0
514 515 516 0
-517 -518 0
-517 -519 0
-518 -519 0
517 518 519 0
-520 -521 0
-520 -522 0
-521 -522 0
520 521 522 0
-523 -524 0
-523 -525 0
-524 -525 0
523 524 525 0
-526 -527 0
-526 -528 0
-527 -528 0
526 527 528 0
-529 -530 0
-529 -531 0
-530 -531 0
529 530 531 0
-532 -533 0
-532 -534 0
-533 -534 0
532 533 534 0
-535 -536 0
-535 -537 0
-536 -537 0
535 536 537 0
-538 -539 0
-538 -540 0
-539 -540 0
538 539 540 0
-541 -542 0
-541 -543 0
-542 -543 0
541 542 543 0
-544 -545 0
-544 -546 0
-545 -546 0
544 545 546 0
-547 -548 0
-547 -549 0
-548 -549 0
547 548 549 0
-550 -551 0
-550 -552 0
-551 -552 0
550 551 552 0
-553 -554 0
-553 -555 0
-554 -555 0
553 554 555 0
-556 -557 0
-556 -558 0
-557 -558 0
556 557 558 0
-559 -560 0
-559 -561 0
-560 -561 0
559 560 561 0
-562 -563 0
-562 -564 0
-563 -564 0
562 563 564 0
-565 -566 0
-565 -567 0
-566 -567 0
565 566 567 0
-568 -569 0
-568 -570 0
-569 -570 0
568 569 570 0
-571 -572 0
-571 -573 0
-572 -573 0
571 572 573 0
-574 -575 0
-574 -576 0
-575 -576 0
574 575 576 0
-577 -578 0
-577 -579 0
-578 -579 0
577 578 579 0
-580 -581 0
-580 -582 0
-581 -582 0
580 581 582 0
-583 -584 0
-583 -585 0
-584 -585 0
583 584 585 0
-586 -587 0
-586 -588 0
-587 -588 0
586 587 588 0
-589 -590 0
-589 -591 0
-590 -591 0
589 590 591 0
-592 -593 0
-592 -594 0
-593 -594 0
592 593 594 0
-595 -596 0
-595 -597 0
-596 -597 0
595 596 597 0
-598 -599 0
-598 -600 0
-599 -600 0
598 599 600 0
-19 -1 0
-20 -2 0
-21 -3 0
-181 -1 0
-182 -2 0
-183 -3 0
-289 -1 0
-290 -2 0
-291 -3 0
-337 -1 0
-338 -2 0
-339 -3 0
-511 -1 0
-512 -2 0
-513 -3 0
-34 -4 0
-35 -5 0
-36 -6 0
-76 -4 0
-77 -5 0
-78 -6 0
-367 -4 0
-368 -5 0
-369 -6 0
-385 -4 0
-386 -5 0
-387 -6 0
-472 -7 0
-473 -8 0
-474 -9 0
-94 -10 0
-95 -11 0
-96 -12 0
-178 -10 0
-179 -11 0
-180 -12 0
-532 -10 0
-533 -11 0
-534 -12 0
-586 -10 0
-587 -11 0
-588 -12 0
-148 -13 0
-149 -14 0
-150 -15 0
-259 -13 0
-260 -14 0
-261 -15 0
-283 -13 0
-284 -14 0
-285 -15 0
-295 -13 0
-296 -14 0
-297 -15 0
-478 -13 0
-479 -14 0
-480 -15 0
-547 -13 0
-548 -14 0
-549 -15 0
-52 -16 0
-53 -17 0
-54 -18 0
-235 -16 0
-236 -17 0
-237 -18 0
-499 -16 0
-500 -17 0
-501 -18 0
-529 -16 0
-530 -17 0
-531 -18 0
-547 -16 0
-548 -17 0
-549 -18 0
-91 -19 0
-92 -20 0
-93 -21 0
-244 -19 0
-245 -20 0
-246 -21 0
-397 -19 0
-398 -20 0
-399 -21 0
-517 -19 0
-518 -20 0
-519 -21 0
-568 -19 0
-569 -20 0
-570 -21 0
-136 -22 0
-137 -23 0
-138 -24 0
-253 -22 0
-254 -23 0
-255 -24 0
-388 -22 0
-389 -23 0
-390 -24 0
-40 -25 0
-41 -26 0
-42 -27 0
-184 -25 0
-185 -26 0
-186 -27 0
-199 -25 0
-200 -26 0
-201 -27 0
-220 -25 0
-221 -26 0
-222 -27 0
-592 -25 0
-593 -26 0
-594 -27 0
-316 -28 0
-317 -29 0
-318 -30 0
-322 -28 0
-323 -29 0
-324 -30 0
-79 -31 0
-80 -32 0
-81 -33 0
-199 -31 0
-200 -32 0
-201 -33 0
-304 -31 0
-305 -32 0
-306 -33 0
-409 -31 0
-410 -32 0
-411 -33 0
-442 -31 0
-443 -32 0
-444 -33 0
-583 -31 0
-584 -32 0
-585 -33 0
-124 -34 0
-125 -35 0
-126 -36 0
-187 -34 0
-188 -35 0
-189 -36 0
-232 -34 0
-233 -35 0
-234 -36 0
-493 -34 0
-494 -35 0
-495 -36 0
-346 -37 0
-347 -38 0
-348 -39 0
-514 -37 0
-515 -38 0
-516 -39 0
-121 -40 0
-122 -41 0
-123 -42 0
-148 -40 0
-149 -41 0
-150 -42 0
-172 -40 0
-173 -41 0
-174 -42 0
-370 -40 0
-371 -41 0
-372 -42 0
-544 -40 0
-545 -41 0
-546 -42 0
-583 -40 0
-584 -41 0
-585 -42 0
-169 -43 0
-170 -44 0
-171 -45 0
-325 -43 0
-326 -44 0
-327 -45 0
-397 -43 0
-398 -44 0
-399 -45 0
-478 -43 0
-479 -44 0
-480 -45 0
-145 -46 0
-146 -47 0
-147 -48 0
-310 -46 0
-311 -47 0
-312 -48 0
-331 -46 0
-332 -47 0
-333 -48 0
-406 -46 0
-407 -47 0
-408 -48 0
-538 -46 0
-539 -47 0
-540 -48 0
-64 -49 0
-65 -50 0
-66 -51 0
-94 -49 0
-95 -50 0
-96 -51 0
-178 -49 0
-179 -50 0
-180 -51 0
-304 -49 0
-305 -50 0
-306 -51 0
-349 -49 0
-350 -50 0
-351 -51 0
-421 -49 0
-422 -50 0
-423 -51 0
-343 -52 0
-344 -53 0
-345 -54 0
-373 -52 0
-374 -53 0
-375 -54 0
-289 -55 0
-290 -56 0
-291 -57 0
-367 -55 0
-368 -56 0
-369 -57 0
-469 -55 0
-470 -56 0
-471 -57 0
-493 -55 0
-494 -56 0
-495 -57 0
-106 -58 0
-107 -59 0
-108 -60 0
-154 -58 0
-155 -59 0
-156 -60 0
-244 -61 0
-245 -62 0
-246 -63 0
-406 -61 0
-407 -62 0
-408 -63 0
-79 -64 0
-80 -65 0
-81 -66 0
-169 -64 0
-170 -65 0
-171 -66 0
-340 -64 0
-341 -65 0
-342 -66 0
-388 -64 0
-389 -65 0
-390 -66 0
-577 -64 0
-578 -65 0
-579 -66 0
-103 -67 0
-104 -68 0
-105 -69 0
-112 -67 0
-113 -68 0
-114 -69 0
-160 -67 0
-161 -68 0
-162 -69 0
-274 -67 0
-275 -68 0
-276 -69 0
-421 -67 0
-422 -68 0
-423 -69 0
-427 -67 0
-428 -68 0
-429 -69 0
-517 -67 0
-518 -68 0
-519 -69 0
-130 -70 0
-131 -71 0
-132 -72 0
-208 -70 0
-209 -71 0
-210 -72 0
-250 -70 0
-251 -71 0
-252 -72 0
-439 -70 0
-440 -71 0
-441 -72 0
-448 -70 0
-449 -71 0
-450 -72 0
-475 -70 0
-476 -71 0
-477 -72 0
-598 -70 0
-599 -71 0
-600 -72 0
-214 -73 0
-215 -74 0
-216 -75 0
-322 -73 0
-323 -74 0
-324 -75 0
-373 -73 0
-374 -74 0
-375 -75 0
-430 -73 0
-431 -74 0
-432 -75 0
-496 -73 0
-497 -74 0
-498 -75 0
-127 -76 0
-128 -77 0
-129 -78 0
-157 -76 0
-158 -77 0
-159 -78 0
-172 -76 0
-173 -77 0
-174 -78 0
-217 -76 0
-218 -77 0
-219 -78 0
-337 -76 0
-338 -77 0
-339 -78 0
-409 -76 0
-410 -77 0
-411 -78 0
-505 -76 0
-506 -77 0
-507 -78 0
-109 -79 0
-110 -80 0
-111 -81 0
-115 -79 0
-116 -80 0
-117 -81 0
-166 -79 0
-167 -80 0
-168 -81 0
-217 -79 0
-218 -80 0
-219 -81 0
-190 -82 0
-191 -83 0
-192 -84 0
-217 -82 0
-218 -83 0
-219 -84 0
-286 -82 0
-287 -83 0
-288 -84 0
-340 -82 0
-341 -83 0
-342 -84 0
-109 -85 0
-110 -86 0
-111 -87 0
-166 -85 0
-167 -86 0
-168 -87 0
-232 -85 0
-233 -86 0
-234 -87 0
-403 -85 0
-404 -86 0
-405 -87 0
-460 -85 0
-461 -86 0
-462 -87 0
-94 -88 0
-95 -89 0
-96 -90 0
-109 -88 0
-110 -89 0
-111 -90 0
-202 -88 0
-203 -89 0
-204 -90 0
-316 -88 0
-317 -89 0
-318 -90 0
-346 -88 0
-347 -89 0
-348 -90 0
-490 -88 0
-491 -89 0
-492 -90 0
-589 -88 0
-590 -89 0
-591 -90 0
-94 -91 0
-95 -92 0
-96 -93 0
-118 -91 0
-119 -92 0
-120 -93 0
-325 -91 0
-326 -92 0
-327 -93 0
-373 -91 0
-374 -92 0
-375 -93 0
-133 -97 0
-134 -98 0
-135 -99 0
-154 -97 0
-155 -98 0
-156 -99 0
-205 -97 0
-206 -98 0
-207 -99 0
-556 -97 0
-557 -98 0
-558 -99 0
-172 -100 0
-173 -101 0
-174 -102 0
-322 -100 0
-323 -101 0
-324 -102 0
-304 -103 0
-305 -104 0
-306 -105 0
-307 -103 0
-308 -104 0
-309 -105 0
-460 -103 0
-461 -104 0
-462 -105 0
-595 -103 0
-596 -104 0
-597 -105 0
-292 -106 0
-293 -107 0
-294 -108 0
-298 -106 0
-299 -107 0
-300 -108 0
-310 -106 0
-311 -107 0
-312 -108 0
-316 -106 0
-317 -107 0
-318 -108 0
-415 -106 0
-416 -107 0
-417 -108 0
-433 -106 0
-434 -107 0
-435 -108 0
-259 -109 0
-260 -110 0
-261 -111 0
-145 -112 0
-146 -113 0
-147 -114 0
-244 -112 0
-245 -113 0
-246 -114 0
-298 -112 0
-299 -113 0
-300 -114 0
-304 -112 0
-305 -113 0
-306 -114 0
-415 -112 0
-416 -113 0
-417 -114 0
-466 -112 0
-467 -113 0
-468 -114 0
-205 -115 0
-206 -116 0
-207 -117 0
-262 -115 0
-263 -116 0
-264 -117 0
-403 -115 0
-404 -116 0
-405 -117 0
-538 -115 0
-539 -116 0
-540 -117 0
-544 -115 0
-545 -116 0
-546 -117 0
-214 -118 0
-215 -119 0
-216 -120 0
-475 -118 0
-476 -119 0
-477 -120 0
-490 -118 0
-491 -119 0
-492 -120 0
-493 -118 0
-494 -119 0
-495 -120 0
-394 -121 0
-395 -122 0
-396 -123 0
-541 -121 0
-542 -122 0
-543 -123 0
-136 -124 0
-137 -125 0
-138 -126 0
-172 -124 0
-173 -125 0
-174 -126 0
-331 -124 0
-332 -125 0
-333 -126 0
-442 -124 0
-443 -125 0
-444 -126 0
-526 -124 0
-527 -125 0
-528 -126 0
-580 -124 0
-581 -125 0
-582 -126 0
-205 -127 0
-206 -128 0
-207 -129 0
-289 -127 0
-290 -128 0
-291 -129 0
-328 -127 0
-329 -128 0
-330 -129 0
-337 -127 0
-338 -128 0
-339 -129 0
-430 -127 0
-431 -128 0
-432 -129 0
-511 -127 0
-512 -128 0
-513 -129 0
-589 -127 0
-590 -128 0
-591 -129 0
-151 -130 0
-152 -131 0
-153 -132 0
-160 -130 0
-161 -131 0
-162 -132 0
-247 -130 0
-248 -131 0
-249 -132 0
-478 -130 0
-479 -131 0
-480 -132 0
-511 -130 0
-512 -131 0
-513 -132 0
-214 -133 0
-215 -134 0
-216 -135 0
-289 -133 0
-290 -134 0
-291 -135 0
-352 -136 0
-353 -137 0
-354 -138 0
-466 -136 0
-467 -137 0
-468 -138 0
-478 -136 0
-479 -137 0
-480 -138 0
-571 -136 0
-572 -137 0
-573 -138 0
-163 -139 0
-164 -140 0
-165 -141 0
-325 -142 0
-326 -143 0
-327 -144 0
-379 -142 0
-380 -143 0
-381 -144 0
-424 -142 0
-425 -143 0
-426 -144 0
-478 -142 0
-479 -143 0
-480 -144 0
-490 -142 0
-491 -143 0
-492 -144 0
-559 -142 0
-560 -143 0
-561 -144 0
-223 -145 0
-224 -146 0
-225 -147 0
-559 -145 0
-560 -146 0
-561 -147 0
-577 -145 0
-578 -146 0
-579 -147 0
-583 -145 0
-584 -146 0
-585 -147 0
-277 -148 0
-278 -149 0
-279 -150 0
-415 -151 0
-416 -152 0
-417 -153 0
-295 -154 0
-296 -155 0
-297 -156 0
-301 -154 0
-302 -155 0
-303 -156 0
-481 -154 0
-482 -155 0
-483 -156 0
-238 -157 0
-239 -158 0
-240 -159 0
-259 -160 0
-260 -161 0
-261 -162 0
-301 -160 0
-302 -161 0
-303 -162 0
-445 -160 0
-446 -161 0
-447 -162 0
-457 -160 0
-458 -161 0
-459 -162 0
-271 -163 0
-272 -164 0
-273 -165 0
-394 -163 0
-395 -164 0
-396 -165 0
-457 -166 0
-458 -167 0
-459 -168 0
-463 -166 0
-464 -167 0
-465 -168 0
-493 -166 0
-494 -167 0
-495 -168 0
-187 -169 0
-188 -170 0
-189 -171 0
-253 -169 0
-254 -170 0
-255 -171 0
-217 -172 0
-218 -173 0
-219 -174 0
-250 -175 0
-251 -176 0
-252 -177 0
-262 -175 0
-263 -176 0
-264 -177 0
-412 -175 0
-413 -176 0
-414 -177 0
-505 -175 0
-506 -176 0
-507 -177 0
-523 -175 0
-524 -176 0
-525 -177 0
-211 -178 0
-212 -179 0
-213 -180 0
-256 -178 0
-257 -179 0
-258 -180 0
-340 -178 0
-341 -179 0
-342 -180 0
-511 -178 0
-512 -179 0
-513 -180 0
-559 -178 0
-560 -179 0
-561 -180 0
-289 -181 0
-290 -182 0
-291 -183 0
-418 -181 0
-419 -182 0
-420 -183 0
-352 -184 0
-353 -185 0
-354 -186 0
-454 -184 0
-455 -185 0
-456 -186 0
-211 -187 0
-212 -188 0
-213 -189 0
-259 -187 0
-260 -188 0
-261 -189 0
-532 -187 0
-533 -188 0
-534 -189 0
-592 -187 0
-593 -188 0
-594 -189 0
-373 -190 0
-374 -191 0
-375 -192 0
-445 -190 0
-446 -191 0
-447 -192 0
-475 -190 0
-476 -191 0
-477 -192 0
-523 -190 0
-524 -191 0
-525 -192 0
-214 -193 0
-215 -194 0
-216 -195 0
-283 -193 0
-284 -194 0
-285 -195 0
-568 -193 0
-569 -194 0
-570 -195 0
-463 -196 0
-464 -197 0
-465 -198 0
-487 -196 0
-488 -197 0
-489 -198 0
-295 -199 0
-296 -200 0
-297 -201 0
-415 -199 0
-416 -200 0
-417 -201 0
-445 -202 0
-446 -203 0
-447 -204 0
-487 -202 0
-488 -203 0
-489 -204 0
-493 -202 0
-494 -203 0
-495 -204 0
-304 -205 0
-305 -206 0
-306 -207 0
-376 -205 0
-377 -206 0
-378 -207 0
-502 -205 0
-503 -206 0
-504 -207 0
-229 -208 0
-230 -209 0
-231 -210 0
-544 -208 0
-545 -209 0
-546 -210 0
-550 -208 0
-551 -209 0
-552 -210 0
-220 -211 0
-221 -212 0
-222 -213 0
-505 -211 0
-506 -212 0
-507 -213 0
-370 -214 0
-371 -215 0
-372 -216 0
-403 -214 0
-404 -215 0
-405 -216 0
-415 -214 0
-416 -215 0
-417 -216 0
-535 -214 0
-536 -215 0
-537 -216 0
-379 -217 0
-380 -218 0
-381 -219 0
-586 -217 0
-587 -218 0
-588 -219 0
-589 -217 0
-590 -218 0
-591 -219 0
-328 -220 0
-329 -221 0
-330 -222 0
-358 -220 0
-359 -221 0
-360 -222 0
-403 -220 0
-404 -221 0
-405 -222 0
-439 -220 0
-440 -221 0
-441 -222 0
-442 -220 0
-443 -221 0
-444 -222 0
-490 -220 0
-491 -221 0
-492 -222 0
-295 -223 0
-296 -224 0
-297 -225 0
-394 -223 0
-395 -224 0
-396 -225 0
-421 -223 0
-422 -224 0
-423 -225 0
-511 -223 0
-512 -224 0
-513 -225 0
-541 -223 0
-542 -224 0
-543 -225 0
-289 -226 0
-290 -227 0
-291 -228 0
-361 -226 0
-362 -227 0
-363 -228 0
-466 -226 0
-467 -227 0
-468 -228 0
-598 -226 0
-599 -227 0
-600 -228 0
-463 -229 0
-464 -230 0
-465 -231 0
-481 -229 0
-482 -230 0
-483 -231 0
-262 -232 0
-263 -233 0
-264 -234 0
-355 -232 0
-356 -233 0
-357 -234 0
-448 -232 0
-449 -233 0
-450 -234 0
-472 -232 0
-473 -233 0
-474 -234 0
-343 -235 0
-344 -236 0
-345 -237 0
-517 -235 0
-518 -236 0
-519 -237 0
-250 -238 0
-251 -239 0
-252 -240 0
-325 -238 0
-326 -239 0
-327 -240 0
-364 -238 0
-365 -239 0
-366 -240 0
-403 -238 0
-404 -239 0
-405 -240 0
-448 -238 0
-449 -239 0
-450 -240 0
-478 -238 0
-479 -239 0
-480 -240 0
-481 -241 0
-482 -242 0
-483 -243 0
-325 -244 0
-326 -245 0
-327 -246 0
-472 -244 0
-473 -245 0
-474 -246 0
-376 -247 0
-377 -248 0
-378 -249 0
-421 -247 0
-422 -248 0
-423 -249 0
-439 -250 0
-440 -251 0
-441 -252 0
-451 -250 0
-452 -251 0
-453 -252 0
-457 -250 0
-458 -251 0
-459 -252 0
-532 -250 0
-533 -251 0
-534 -252 0
-283 -253 0
-284 -254 0
-285 -255 0
-496 -253 0
-497 -254 0
-498 -255 0
-523 -253 0
-524 -254 0
-525 -255 0
-580 -253 0
-581 -254 0
-582 -255 0
-298 -256 0
-299 -257 0
-300 -258 0
-427 -256 0
-428 -257 0
-429 -258 0
-514 -256 0
-515 -257 0
-516 -258 0
-553 -256 0
-554 -257 0
-555 -258 0
-367 -259 0
-368 -260 0
-369 -261 0
-343 -262 0
-344 -263 0
-345 -264 0
-418 -262 0
-419 -263 0
-420 -264 0
-544 -262 0
-545 -263 0
-546 -264 0
-349 -265 0
-350 -266 0
-351 -267 0
-352 -265 0
-353 -266 0
-354 -267 0
-361 -265 0
-362 -266 0
-363 -267 0
-454 -265 0
-455 -266 0
-456 -267 0
-526 -265 0
-527 -266 0
-528 -267 0
-349 -268 0
-350 -269 0
-351 -270 0
-442 -268 0
-443 -269 0
-444 -270 0
-481 -268 0
-482 -269 0
-483 -270 0
-529 -268 0
-530 -269 0
-531 -270 0
-538 -268 0
-539 -269 0
-540 -270 0
-574 -268 0
-575 -269 0
-576 -270 0
-280 -271 0
-281 -272 0
-282 -273 0
-292 -271 0
-293 -272 0
-294 -273 0
-361 -271 0
-362 -272 0
-363 -273 0
-379 -271 0
-380 -272 0
-381 -273 0
-571 -271 0
-572 -272 0
-573 -273 0
-418 -274 0
-419 -275 0
-420 -276 0
-487 -274 0
-488 -275 0
-489 -276 0
-427 -277 0
-428 -278 0
-429 -279 0
-508 -277 0
-509 -278 0
-510 -279 0
-526 -277 0
-527 -278 0
-528 -279 0
-346 -280 0
-347 -281 0
-348 -282 0
-370 -280 0
-371 -281 0
-372 -282 0
-460 -280 0
-461 -281 0
-462 -282 0
-517 -280 0
-518 -281 0
-519 -282 0
-562 -283 0
-563 -284 0
-564 -285 0
-388 -292 0
-389 -293 0
-390 -294 0
-433 -292 0
-434 -293 0
-435 -294 0
-556 -292 0
-557 -293 0
-558 -294 0
-568 -292 0
-569 -293 0
-570 -294 0
-397 -295 0
-398 -296 0
-399 -297 0
-436 -295 0
-437 -296 0
-438 -297 0
-394 -298 0
-395 -299 0
-396 -300 0
-421 -298 0
-422 -299 0
-423 -300 0
-307 -301 0
-308 -302 0
-309 -303 0
-526 -301 0
-527 -302 0
-528 -303 0
-559 -301 0
-560 -302 0
-561 -303 0
-592 -301 0
-593 -302 0
-594 -303 0
-352 -304 0
-353 -305 0
-354 -306 0
-385 -307 0
-386 -308 0
-387 -309 0
-400 -307 0
-401 -308 0
-402 -309 0
-415 -307 0
-416 -308 0
-417 -309 0
-445 -307 0
-446 -308 0
-447 -309 0
-565 -307 0
-566 -308 0
-567 -309 0
-502 -310 0
-503 -311 0
-504 -312 0
-391 -316 0
-392 -317 0
-393 -318 0
-508 -316 0
-509 -317 0
-510 -318 0
-361 -319 0
-362 -320 0
-363 -321 0
-463 -319 0
-464 -320 0
-465 -321 0
-523 -319 0
-524 -320 0
-525 -321 0
-376 -322 0
-377 -323 0
-378 -324 0
-418 -322 0
-419 -323 0
-420 -324 0
-385 -325 0
-386 -326 0
-387 -327 0
-571 -325 0
-572 -326 0
-573 -327 0
-589 -328 0
-590 -329 0
-591 -330 0
-358 -331 0
-359 -332 0
-360 -333 0
-418 -331 0
-419 -332 0
-420 -333 0
-367 -334 0
-368 -335 0
-369 -336 0
-475 -337 0
-476 -338 0
-477 -339 0
-553 -337 0
-554 -338 0
-555 -339 0
-484 -340 0
-485 -341 0
-486 -342 0
-505 -340 0
-506 -341 0
-507 -342 0
-514 -340 0
-515 -341 0
-516 -342 0
-559 -340 0
-560 -341 0
-561 -342 0
-460 -343 0
-461 -344 0
-462 -345 0
-484 -343 0
-485 -344 0
-486 -345 0
-511 -343 0
-512 -344 0
-513 -345 0
-397 -349 0
-398 -350 0
-399 -351 0
-430 -349 0
-431 -350 0
-432 -351 0
-379 -352 0
-380 -353 0
-381 -354 0
-478 -352 0
-479 -353 0
-480 -354 0
-556 -352 0
-557 -353 0
-558 -354 0
-361 -355 0
-362 -356 0
-363 -357 0
-451 -358 0
-452 -359 0
-453 -360 0
-475 -358 0
-476 -359 0
-477 -360 0
-547 -358 0
-548 -359 0
-549 -360 0
-574 -358 0
-575 -359 0
-576 -360 0
-448 -361 0
-449 -362 0
-450 -363 0
-580 -361 0
-581 -362 0
-582 -363 0
-583 -364 0
-584 -365 0
-585 -366 0
-421 -367 0
-422 -368 0
-423 -369 0
-499 -367 0
-500 -368 0
-501 -369 0
-436 -370 0
-437 -371 0
-438 -372 0
-472 -370 0
-473 -371 0
-474 -372 0
-505 -370 0
-506 -371 0
-507 -372 0
-457 -376 0
-458 -377 0
-459 -378 0
-532 -376 0
-533 -377 0
-534 -378 0
-577 -376 0
-578 -377 0
-579 -378 0
-514 -379 0
-515 -380 0
-516 -381 0
-586 -382 0
-587 -383 0
-588 -384 0
-415 -385 0
-416 -386 0
-417 -387 0
-430 -385 0
-431 -386 0
-432 -387 0
-508 -385 0
-509 -386 0
-510 -387 0
-523 -385 0
-524 -386 0
-525 -387 0
-544 -385 0
-545 -386 0
-546 -387 0
-460 -388 0
-461 -389 0
-462 -390 0
-463 -391 0
-464 -392 0
-465 -393 0
-538 -391 0
-539 -392 0
-540 -393 0
-562 -394 0
-563 -395 0
-564 -396 0
-451 -397 0
-452 -398 0
-453 -399 0
-427 -400 0
-428 -401 0
-429 -402 0
-469 -400 0
-470 -401 0
-471 -402 0
-451 -403 0
-452 -404 0
-453 -405 0
-469 -403 0
-470 -404 0
-471 -405 0
-538 -403 0
-539 -404 0
-540 -405 0
-412 -406 0
-413 -407 0
-414 -408 0
-469 -406 0
-470 -407 0
-471 -408 0
-487 -406 0
-488 -407 0
-489 -408 0
-496 -406 0
-497 -407 0
-498 -408 0
-568 -406 0
-569 -407 0
-570 -408 0
-535 -409 0
-536 -410 0
-537 -411 0
-439 -412 0
-440 -413 0
-441 -414 0
-586 -412 0
-587 -413 0
-588 -414 0
-514 -418 0
-515 -419 0
-516 -420 0
-529 -418 0
-530 -419 0
-531 -420 0
-574 -421 0
-575 -422 0
-576 -423 0
-499 -424 0
-500 -425 0
-501 -426 0
-595 -424 0
-596 -425 0
-597 -426 0
-496 -430 0
-497 -431 0
-498 -432 0
-535 -430 0
-536 -431 0
-537 -432 0
-565 -430 0
-566 -431 0
-567 -432 0
-517 -433 0
-518 -434 0
-519 -435 0
-481 -442 0
-482 -443 0
-483 -444 0
-547 -442 0
-548 -443 0
-549 -444 0
-589 -442 0
-590 -443 0
-591 -444 0
-466 -448 0
-467 -449 0
-468 -450 0
-583 -448 0
-584 -449 0
-585 -450 0
-463 -454 0
-464 -455 0
-465 -456 0
-469 -454 0
-470 -455 0
-471 -456 0
-574 -454 0
-575 -455 0
-576 -456 0
-499 -457 0
-500 -458 0
-501 -459 0
-508 -460 0
-509 -461 0
-510 -462 0
-517 -463 0
-518 -464 0
-519 -465 0
-484 -466 0
-485 -467 0
-486 -468 0
-577 -466 0
-578 -467 0
-579 -468 0
-499 -475 0
-500 -476 0
-501 -477 0
-562 -481 0
-563 -482 0
-564 -483 0
-574 -481 0
-575 -482 0
-576 -483 0
-490 -484 0
-491 -485 0
-492 -486 0
-574 -487 0
-575 -488 0
-576 -489 0
-589 -490 0
-590 -491 0
-591 -492 0
-538 -496 0
-539 -497 0
-540 -498 0
-547 -502 0
-548 -503 0
-549 -504 0
-538 -508 0
-539 -509 0
-540 -510 0
-589 -514 0
-590 -515 0
-591 -516 0
-568 -523 0
-569 -524 0
-570 -525 0
-553 -529 0
-554 -530 0
-555 -531 0
-571 -529 0
-572 -530 0
-573 -531 0
-565 -532 0
-566 -533 0
-567 -534 0
-577 -535 0
-578 -536 0
-579 -537 0
-571 -547 0
-572 -548 0
-573 -549 0
-598 -550 0
-599 -551 0
-600 -552 0
-577 -553 0
-578 -554 0
-579 -555 0
-565 -559 0
-566 -560 0
-567 -561 0
-586 -559 0
-587 -560 0
-588 -561 0
-595 -568 0
-596 -569 0
-597 -570 0
-595 -592 0
-596 -593 0
-597 -594 0
